p cnf 37 99
a 9 30 0
e 1 2 3 4 5 6 7 8 10 11 12 13 14 15 16 17 18 19 20 21 22 23 24 25 26 27 28 29 31 32 33 34 35 36 37 0
3 -1 0
3 -2 0
1 2 -3 0
-5 3 0
-5 -4 0
-3 4 5 0
5 -6 -7 0
-5 6 -7 0
5 6 7 0
-5 -6 7 0
9 -8 0
9 2 0
8 -2 -9 0
-10 -4 0
-10 8 0
4 -8 10 0
-11 9 0
-11 -10 0
-9 10 11 0
-12 -5 0
-12 11 0
5 -11 12 0
13 -14 -15 0
-13 14 -15 0
13 14 15 0
-13 -14 15 0
12 -15 -16 0
-12 15 -16 0
12 15 16 0
-12 -15 16 0
-17 7 0
-17 16 0
-7 -16 17 0
-19 -1 0
-19 -18 0
1 18 19 0
-19 -14 -20 0
19 14 -20 0
-19 14 20 0
19 -14 20 0
18 -21 -22 0
-18 21 -22 0
18 21 22 0
-18 -21 22 0
18 23 -24 0
-18 -23 -24 0
18 -23 24 0
-18 23 24 0
-25 22 0
-25 -24 0
-22 24 25 0
26 20 0
26 25 0
-20 -25 -26 0
-27 17 0
-27 26 0
-17 -26 27 0
-28 -9 0
-28 4 0
9 -4 28 0
-22 -23 -29 0
22 23 -29 0
-22 23 29 0
22 -23 29 0
-30 29 0
-30 -14 0
-29 14 30 0
-31 -30 0
-31 -4 0
30 4 31 0
32 -28 0
32 -31 0
28 31 -32 0
-33 -13 0
-33 -14 0
13 14 33 0
-8 -23 -34 0
8 23 -34 0
-8 23 34 0
8 -23 34 0
35 33 0
35 -34 0
-33 34 -35 0
36 -32 0
36 -35 0
32 35 -36 0
37 -27 0
37 36 0
27 -36 -37 0
33 -14 29 8 -34 -26 -24 0
-3 27 19 0
-28 -25 -30 9 31 -18 24 0
4 11 -18 -19 0
31 -25 35 15 23 -12 32 0
16 37 -2 0
31 -18 -19 1 0
-13 17 5 0
-9 -34 31 8 0
37 0
